NAME : eil101.tsp
COMMENT : Optimal tour for eil101.tsp
TYPE : TOUR
DIMENSION : 101
Total Length: 690.972231961395
TOUR_SECTION
1
69
50
76
12
80
68
77
3
79
33
81
51
20
66
65
71
35
9
34
78
29
24
54
55
25
4
39
67
23
56
75
41
22
74
72
73
21
26
28
27
101
53
40
58
13
95
97
87
2
57
15
43
42
14
44
38
86
16
91
100
37
92
98
85
93
59
99
96
94
6
89
52
7
88
31
70
30
32
90
63
10
62
11
19
48
82
18
83
60
5
61
84
17
45
8
46
47
36
49
64
-1
EOF
